80 8
29 19
60 19
41 46
3 10
97 9
38 5
74 37
100 72
1 41
20 93
27 36
83 4
23 90
93 86
5 70
81 84
13 95
69 89
39 100
10 34
47 21
44 94
3 59
61 7
26 76
19 6
44 86
3 83
36 18
48 10
94 97
42 26
62 65
32 33
12 21
41 44
25 11
64 93
93 94
65 53
60 21
51 38
88 88
97 12
71 55
87 44
98 47
1 62
11 10
29 94
47 50
73 47
71 75
24 15
60 76
31 76
41 59
85 96
70 45
32 6
88 55
4 11
23 100
14 51
88 46
38 35
75 79
14 51
5 1
1 16
58 35
98 37
31 87
17 63
10 68
70 33
80 10
38 39
65 54
11 92
182 690
225 622
166 547
327 651
237 633
94 401
90 697
51 396
